100 1000
92 98
54 49
67 64
37 7
29 8
76 65
12 49
48 13
89 1
78 26
76 42
46 3
56 32
36 99
35 18
26 42
71 94
14 8
53 82
64 100
57 88
77 78
86 100
76 76
47 25
93 5
74 5
89 14
100 86
46 54
45 45
92 53
90 84
91 89
92 18
33 100
78 49
54 64
66 21
58 4
64 15
22 78
56 92
75 90
45 27
64 18
97 1
47 25
59 24
74 45
47 41
37 44
73 6
58 99
84 10
12 34
48 67
65 2
74 34
68 28
19 93
66 22
28 2
90 75
20 86
74 71
62 80
12 60
85 54
91 66
49 5
91 66
72 29
42 41
92 63
35 19
47 71
79 34
17 100
63 11
40 90
57 36
90 97
58 63
86 7
43 22
44 4
86 15
30 61
92 34
23 71
13 41
80 64
56 35
88 79
8 96
16 72
1 80
30 58
47 65
